# Objective value = 2419.67
I_0_0 649
I_0_1 895
I_0_2 783
I_0_3 8.2799999999999989e+02
I_0_4 8.2899999999999989e+02
I_0_5 716
I_0_6 9.6199999999999989e+02
I_1_0 118
I_1_1 59
I_1_2 118
I_1_3 59
I_1_4 0
I_1_5 118
I_1_6 5.8999999999999993e+01
I_2_0 89
I_2_1 0
I_2_2 89
I_2_3 6.1756155744774333e-16
I_2_4 89
I_2_5 89
I_2_6 0
I_3_0 134
I_3_1 67
I_3_2 0
I_3_3 134
I_3_4 134
I_3_5 6.7000000000000028e+01
I_3_6 0
I_4_0 38
I_4_1 19
I_4_2 3.7999999999999993e+01
I_4_3 1.8999999999999996e+01
I_4_4 0
I_4_5 38
I_4_6 1.8999999999999996e+01
I_5_0 24
I_5_1 12
I_5_2 24
I_5_3 12
I_5_4 0
I_5_5 24
I_5_6 12
q_1_0 0
q_1_1 118
q_1_2 0
q_1_3 0
q_1_4 1.7699999999999997e+02
q_1_5 0
q_2_0 0
q_2_1 178
q_2_2 6.1756155744774333e-16
q_2_3 178
q_2_4 89
q_2_5 0
q_3_0 0
q_3_1 1.3322676295501878e-15
q_3_2 201
q_3_3 6.7000000000000014e+01
q_3_4 2.0872192862952943e-14
q_3_5 -3.1086244689504383e-15
q_4_0 0
q_4_1 38
q_4_2 4.4408920985006262e-15
q_4_3 0
q_4_4 57
q_4_5 0
q_5_0 0
q_5_1 24
q_5_2 0
q_5_3 0
q_5_4 36
q_5_5 4.4408920985006262e-16
y_0_0 0
y_0_1 1
y_0_2 1.0000000000000002e+00
y_0_3 1
y_0_4 1
y_0_5 0
y_1_0 0
y_1_1 1
y_1_2 0
y_1_3 0
y_1_4 1
y_1_5 0
y_2_0 0
y_2_1 1
y_2_2 6.9388939039072284e-18
y_2_3 1
y_2_4 1
y_2_5 0
y_3_0 0
y_3_1 6.9388939039072284e-18
y_3_2 1.0000000000000002e+00
y_3_3 1
y_3_4 3.4694469519536142e-17
y_3_5 0
y_4_0 0
y_4_1 9.9999999999999989e-01
y_4_2 1.0408340855860843e-16
y_4_3 0
y_4_4 1
y_4_5 0
y_5_0 0
y_5_1 1
y_5_2 0
y_5_3 0
y_5_4 1
y_5_5 0
x_0_1_0 0
x_0_1_1 0
x_0_1_2 0
x_0_1_3 0
x_0_1_4 0
x_0_1_5 0
x_0_2_0 0
x_0_2_1 1
x_0_2_2 -9.0205620750793969e-17
x_0_2_3 1
x_0_2_4 9.9999999999999978e-01
x_0_2_5 0
x_0_3_0 0
x_0_3_1 -7.6327832942979512e-17
x_0_3_2 2.0000000000000004e+00
x_0_3_3 1
x_0_3_4 2.0816681711721685e-17
x_0_3_5 0
x_0_4_0 0
x_0_4_1 9.9999999999999978e-01
x_0_4_2 2.0816681711721685e-16
x_0_4_3 0
x_0_4_4 1
x_0_4_5 0
x_0_5_0 0
x_0_5_1 0
x_0_5_2 0
x_0_5_3 0
x_0_5_4 -4.1633363423443370e-17
x_0_5_5 0
x_1_2_0 0
x_1_2_1 0
x_1_2_2 0
x_1_2_3 0
x_1_2_4 0
x_1_2_5 0
x_1_3_0 0
x_1_3_1 0
x_1_3_2 0
x_1_3_3 0
x_1_3_4 0
x_1_3_5 0
x_1_4_0 0
x_1_4_1 1
x_1_4_2 0
x_1_4_3 0
x_1_4_4 1
x_1_4_5 0
x_1_5_0 0
x_1_5_1 1
x_1_5_2 0
x_1_5_3 0
x_1_5_4 9.9999999999999978e-01
x_1_5_5 0
x_2_3_0 0
x_2_3_1 0
x_2_3_2 1.3877787807814457e-17
x_2_3_3 1
x_2_3_4 0
x_2_3_5 0
x_2_4_0 0
x_2_4_1 0
x_2_4_2 0
x_2_4_3 0
x_2_4_4 0
x_2_4_5 0
x_2_5_0 0
x_2_5_1 1
x_2_5_2 0
x_2_5_3 0
x_2_5_4 1.0000000000000002e+00
x_2_5_5 0
x_3_4_0 0
x_3_4_1 0
x_3_4_2 0
x_3_4_3 0
x_3_4_4 0
x_3_4_5 0
x_3_5_0 0
x_3_5_1 9.3675067702747583e-17
x_3_5_2 0
x_3_5_3 0
x_3_5_4 5.5511151231257827e-17
x_3_5_5 0
x_4_5_0 0
x_4_5_1 0
x_4_5_2 0
x_4_5_3 0
x_4_5_4 0
x_4_5_5 0
